s td 69 12 80
b 1 1 4 6
b 2 2 3 5
b 3 3 5 19
b 4 4 6 20
b 5 5 19 59
b 6 6 20 60
b 7 7 10 12
b 8 8 9 11
b 9 9 11 79
b 10 10 12 80
b 11 11 21 79
b 12 12 22 80
b 13 49 52 54
b 14 50 51 53
b 15 31 51 53
b 16 32 52 54
b 17 31 53 61
b 18 32 54 62
b 19 65 68 70
b 20 66 67 69
b 21 67 69 77
b 22 68 70 78
b 23 29 69 77
b 24 30 70 78
b 25 13 19 20 21 22 44
b 26 19 20 21 22 32 43 44 45 46 47 48 61
b 27 15 19 20 21 22 43
b 28 14 15 19 22 43
b 29 14 15 17 43
b 30 21 22 32 45 46 47 48 61 80
b 31 21 32 45 46 47 48 61 79 80
b 32 32 45 46 47 48 61 76 79 80
b 33 32 45 47 48 61 75 76 79 80
b 34 31 32 47 48 61 75 76 79 80
b 35 28 31 32 47 48 75 76 79 80
b 36 27 28 31 32 47 75 76 79 80
b 37 27 28 31 32 73 75 76 79 80
b 38 27 28 31 32 73 76 78 80
b 39 25 27 28 31 32 78
b 40 23 25 28 32 78
b 41 23 25 30 78
b 42 71 76 78 80
b 43 26 27 28 31 32 75 76 79 80
b 44 24 26 27 32 75 76 79 80
b 45 24 26 29 75 76 79 80
b 46 29 72 75 76 79 80
b 47 29 72 74 76 79
b 48 29 72 74 77
b 49 19 20 32 43 44 45 46 47 48 61 62
b 50 19 20 43 44 45 46 47 48 60 61 62
b 51 19 43 44 45 46 47 48 59 60 61 62
b 52 43 44 45 46 47 48 56 59 60 61 62
b 53 43 44 45 46 47 48 55 56 60 62
b 54 43 44 45 46 47 48 55 56 64
b 55 42 43 44 45 46 47 48 64
b 56 33 42 44 46 48
b 57 36 42 43 45 48
b 58 38 42 43 46 47
b 59 39 42 44 45 47
b 60 43 44 45 46 47 48 57 59 60 61 62
b 61 43 44 45 46 47 48 57 58 60 61
b 62 41 43 44 45 46 47 48 57 58
b 63 34 41 43 46 48
b 64 35 41 44 45 48
b 65 37 41 44 46 47
b 66 40 41 43 45 47
b 67 41 57 58 63
b 68 13 18 19 21 44
b 69 16 18 19 21
1 4
2 3
3 5
4 6
5 51
6 50
7 10
8 9
9 11
10 12
11 31
12 30
13 16
14 15
15 17
16 18
17 34
18 49
19 22
20 21
21 23
22 24
23 48
24 41
25 26
25 68
26 27
26 30
26 49
27 28
28 29
30 31
31 32
32 33
33 34
34 35
35 36
36 37
36 43
37 38
38 39
38 42
39 40
40 41
43 44
44 45
45 46
46 47
47 48
49 50
50 51
51 52
51 60
52 53
53 54
54 55
55 56
55 57
55 58
55 59
60 61
61 62
62 63
62 64
62 65
62 66
62 67
68 69
